62
1 0 2
2 0 13
2 1 22
3 0 12
3 1 16
3 2 8
4 0 14
4 1 21
4 2 10
4 3 3
5 0 20
5 1 12
5 2 9
5 3 22
5 4 14
6 0 18
6 1 6
6 2 2
6 3 1
6 4 21
6 5 7
7 0 18
7 1 4
7 2 8
7 3 5
7 4 6
7 5 18
7 6 20
8 0 9
8 1 5
8 2 20
8 3 6
8 4 8
8 5 3
8 6 4
8 7 10
9 0 7
9 1 15
9 2 14
9 3 20
9 4 11
9 5 8
9 6 5
9 7 7
9 8 1
10 0 4
10 1 5
10 2 9
10 3 9
10 4 5
10 5 15
10 6 19
10 7 20
10 8 14
10 9 3
11 0 18
11 1 7
11 2 3
11 3 13
11 4 17
11 5 17
11 6 8
11 7 11
11 8 9
11 9 10
11 10 11
12 0 10
12 1 2
12 2 16
12 3 20
12 4 3
12 5 10
12 6 10
12 7 3
12 8 2
12 9 21
12 10 14
12 11 16
13 0 13
13 1 1
13 2 22
13 3 17
13 4 2
13 5 10
13 6 17
13 7 4
13 8 5
13 9 6
13 10 10
13 11 8
13 12 5
14 0 9
14 1 17
14 2 8
14 3 17
14 4 12
14 5 9
14 6 22
14 7 3
14 8 7
14 9 17
14 10 11
14 11 10
14 12 7
14 13 13
15 0 4
15 1 2
15 2 19
15 3 6
15 4 21
15 5 9
15 6 19
15 7 11
15 8 11
15 9 21
15 10 3
15 11 14
15 12 16
15 13 14
15 14 4
16 0 5
16 1 10
16 2 8
16 3 18
16 4 12
16 5 19
16 6 4
16 7 17
16 8 10
16 9 22
16 10 3
16 11 13
16 12 4
16 13 2
16 14 22
16 15 16
17 0 6
17 1 21
17 2 18
17 3 5
17 4 8
17 5 9
17 6 3
17 7 19
17 8 5
17 9 10
17 10 2
17 11 21
17 12 4
17 13 22
17 14 4
17 15 11
17 16 4
18 0 21
18 1 1
18 2 13
18 3 17
18 4 3
18 5 11
18 6 22
18 7 16
18 8 10
18 9 21
18 10 18
18 11 14
18 12 4
18 13 8
18 14 2
18 15 21
18 16 5
18 17 12
19 0 8
19 1 19
19 2 16
19 3 4
19 4 16
19 5 18
19 6 16
19 7 11
19 8 1
19 9 4
19 10 21
19 11 13
19 12 22
19 13 7
19 14 1
19 15 19
19 16 7
19 17 19
19 18 19
20 0 2
20 1 11
20 2 19
20 3 16
20 4 19
20 5 21
20 6 1
20 7 19
20 8 11
20 9 14
20 10 10
20 11 17
20 12 21
20 13 13
20 14 11
20 15 8
20 16 4
20 17 9
20 18 6
20 19 22
21 0 14
21 1 13
21 2 16
21 3 10
21 4 6
21 5 8
21 6 18
21 7 5
21 8 1
21 9 9
21 10 19
21 11 16
21 12 1
21 13 18
21 14 16
21 15 3
21 16 5
21 17 13
21 18 13
21 19 8
21 20 16
22 0 4
22 1 2
22 2 21
22 3 16
22 4 18
22 5 19
22 6 20
22 7 19
22 8 17
22 9 1
22 10 9
22 11 10
22 12 1
22 13 4
22 14 16
22 15 19
22 16 10
22 17 12
22 18 22
22 19 17
22 20 16
22 21 18
23 0 3
23 1 6
23 2 2
23 3 21
23 4 13
23 5 10
23 6 14
23 7 22
23 8 17
23 9 5
23 10 16
23 11 16
23 12 12
23 13 2
23 14 4
23 15 12
23 16 3
23 17 14
23 18 5
23 19 8
23 20 20
23 21 15
23 22 4
24 0 12
24 1 9
24 2 5
24 3 4
24 4 1
24 5 10
24 6 3
24 7 3
24 8 22
24 9 17
24 10 15
24 11 21
24 12 18
24 13 8
24 14 7
24 15 2
24 16 14
24 17 14
24 18 19
24 19 22
24 20 2
24 21 4
24 22 21
24 23 17
25 0 7
25 1 10
25 2 7
25 3 11
25 4 3
25 5 4
25 6 19
25 7 11
25 8 14
25 9 16
25 10 12
25 11 2
25 12 16
25 13 21
25 14 9
25 15 5
25 16 17
25 17 8
25 18 10
25 19 22
25 20 11
25 21 14
25 22 21
25 23 9
25 24 13
26 0 17
26 1 10
26 2 5
26 3 19
26 4 2
26 5 16
26 6 4
26 7 6
26 8 11
26 9 13
26 10 2
26 11 9
26 12 2
26 13 12
26 14 1
26 15 22
26 16 12
26 17 13
26 18 2
26 19 1
26 20 18
26 21 4
26 22 2
26 23 22
26 24 5
26 25 1
27 0 16
27 1 7
27 2 4
27 3 4
27 4 13
27 5 1
27 6 15
27 7 22
27 8 19
27 9 17
27 10 20
27 11 20
27 12 6
27 13 2
27 14 21
27 15 22
27 16 5
27 17 6
27 18 10
27 19 13
27 20 22
27 21 6
27 22 19
27 23 20
27 24 21
27 25 13
27 26 1
28 0 11
28 1 16
28 2 2
28 3 1
28 4 9
28 5 18
28 6 17
28 7 1
28 8 13
28 9 8
28 10 4
28 11 9
28 12 16
28 13 1
28 14 18
28 15 2
28 16 22
28 17 16
28 18 1
28 19 3
28 20 5
28 21 3
28 22 3
28 23 17
28 24 2
28 25 5
28 26 7
28 27 8
29 0 16
29 1 4
29 2 6
29 3 17
29 4 1
29 5 21
29 6 6
29 7 11
29 8 2
29 9 2
29 10 16
29 11 6
29 12 12
29 13 6
29 14 11
29 15 3
29 16 7
29 17 9
29 18 9
29 19 14
29 20 14
29 21 18
29 22 4
29 23 15
29 24 1
29 25 22
29 26 18
29 27 15
29 28 13
30 0 4
30 1 7
30 2 6
30 3 9
30 4 10
30 5 13
30 6 2
30 7 7
30 8 20
30 9 11
30 10 16
30 11 12
30 12 1
30 13 12
30 14 8
30 15 15
30 16 22
30 17 20
30 18 17
30 19 2
30 20 16
30 21 13
30 22 20
30 23 19
30 24 21
30 25 13
30 26 2
30 27 17
30 28 14
30 29 20
31 0 18
31 1 8
31 2 7
31 3 21
31 4 21
31 5 12
31 6 10
31 7 13
31 8 15
31 9 16
31 10 15
31 11 21
31 12 7
31 13 2
31 14 11
31 15 8
31 16 2
31 17 15
31 18 4
31 19 20
31 20 15
31 21 2
31 22 10
31 23 2
31 24 1
31 25 6
31 26 8
31 27 8
31 28 12
31 29 2
31 30 18
32 0 12
32 1 6
32 2 11
32 3 19
32 4 13
32 5 11
32 6 19
32 7 10
32 8 5
32 9 10
32 10 17
32 11 3
32 12 18
32 13 15
32 14 6
32 15 8
32 16 2
32 17 4
32 18 15
32 19 2
32 20 17
32 21 7
32 22 5
32 23 11
32 24 10
32 25 19
32 26 2
32 27 19
32 28 22
32 29 10
32 30 11
32 31 7
33 0 20
33 1 10
33 2 22
33 3 10
33 4 7
33 5 8
33 6 16
33 7 20
33 8 6
33 9 3
33 10 5
33 11 8
33 12 18
33 13 20
33 14 16
33 15 1
33 16 14
33 17 18
33 18 10
33 19 4
33 20 12
33 21 21
33 22 10
33 23 19
33 24 8
33 25 5
33 26 8
33 27 9
33 28 8
33 29 2
33 30 8
33 31 6
33 32 6
34 0 12
34 1 1
34 2 19
34 3 8
34 4 4
34 5 3
34 6 5
34 7 17
34 8 1
34 9 4
34 10 11
34 11 1
34 12 4
34 13 15
34 14 9
34 15 2
34 16 8
34 17 8
34 18 18
34 19 10
34 20 4
34 21 22
34 22 6
34 23 14
34 24 1
34 25 4
34 26 14
34 27 21
34 28 9
34 29 21
34 30 2
34 31 1
34 32 7
34 33 21
35 0 11
35 1 21
35 2 6
35 3 17
35 4 7
35 5 21
35 6 15
35 7 10
35 8 7
35 9 8
35 10 16
35 11 20
35 12 5
35 13 20
35 14 4
35 15 13
35 16 22
35 17 19
35 18 16
35 19 11
35 20 18
35 21 11
35 22 13
35 23 16
35 24 18
35 25 20
35 26 11
35 27 17
35 28 20
35 29 4
35 30 17
35 31 15
35 32 4
35 33 13
35 34 8
36 0 8
36 1 9
36 2 9
36 3 9
36 4 10
36 5 19
36 6 9
36 7 6
36 8 20
36 9 20
36 10 20
36 11 22
36 12 9
36 13 17
36 14 13
36 15 21
36 16 22
36 17 14
36 18 13
36 19 9
36 20 10
36 21 7
36 22 9
36 23 7
36 24 12
36 25 7
36 26 1
36 27 14
36 28 14
36 29 18
36 30 8
36 31 4
36 32 15
36 33 10
36 34 11
36 35 22
37 0 11
37 1 4
37 2 18
37 3 17
37 4 1
37 5 4
37 6 13
37 7 17
37 8 6
37 9 5
37 10 18
37 11 14
37 12 7
37 13 13
37 14 7
37 15 18
37 16 8
37 17 3
37 18 14
37 19 11
37 20 15
37 21 22
37 22 16
37 23 4
37 24 21
37 25 20
37 26 17
37 27 5
37 28 20
37 29 3
37 30 4
37 31 12
37 32 22
37 33 18
37 34 6
37 35 1
37 36 17
38 0 14
38 1 6
38 2 6
38 3 19
38 4 18
38 5 12
38 6 14
38 7 3
38 8 18
38 9 19
38 10 15
38 11 22
38 12 19
38 13 20
38 14 16
38 15 21
38 16 9
38 17 5
38 18 20
38 19 17
38 20 9
38 21 4
38 22 7
38 23 10
38 24 2
38 25 9
38 26 19
38 27 9
38 28 16
38 29 21
38 30 8
38 31 16
38 32 13
38 33 2
38 34 17
38 35 10
38 36 7
38 37 12
39 0 9
39 1 1
39 2 12
39 3 8
39 4 21
39 5 15
39 6 4
39 7 1
39 8 14
39 9 3
39 10 12
39 11 12
39 12 22
39 13 4
39 14 5
39 15 19
39 16 6
39 17 8
39 18 20
39 19 1
39 20 4
39 21 16
39 22 15
39 23 6
39 24 6
39 25 21
39 26 9
39 27 8
39 28 15
39 29 18
39 30 5
39 31 12
39 32 19
39 33 18
39 34 15
39 35 2
39 36 10
39 37 14
39 38 9
40 0 7
40 1 6
40 2 19
40 3 7
40 4 17
40 5 4
40 6 13
40 7 21
40 8 3
40 9 15
40 10 11
40 11 16
40 12 6
40 13 1
40 14 6
40 15 1
40 16 7
40 17 4
40 18 22
40 19 12
40 20 15
40 21 4
40 22 14
40 23 12
40 24 11
40 25 18
40 26 13
40 27 9
40 28 14
40 29 9
40 30 6
40 31 8
40 32 15
40 33 20
40 34 18
40 35 11
40 36 11
40 37 6
40 38 14
40 39 10
41 0 11
41 1 7
41 2 12
41 3 15
41 4 15
41 5 12
41 6 3
41 7 10
41 8 1
41 9 18
41 10 1
41 11 22
41 12 22
41 13 19
41 14 11
41 15 12
41 16 13
41 17 17
41 18 20
41 19 19
41 20 1
41 21 3
41 22 1
41 23 19
41 24 21
41 25 15
41 26 22
41 27 3
41 28 14
41 29 21
41 30 14
41 31 14
41 32 20
41 33 2
41 34 5
41 35 20
41 36 6
41 37 9
41 38 4
41 39 9
41 40 5
42 0 6
42 1 4
42 2 20
42 3 19
42 4 12
42 5 3
42 6 3
42 7 11
42 8 13
42 9 22
42 10 20
42 11 21
42 12 18
42 13 22
42 14 12
42 15 21
42 16 3
42 17 19
42 18 10
42 19 18
42 20 4
42 21 10
42 22 22
42 23 18
42 24 9
42 25 10
42 26 19
42 27 19
42 28 9
42 29 6
42 30 20
42 31 14
42 32 7
42 33 9
42 34 8
42 35 9
42 36 15
42 37 9
42 38 17
42 39 11
42 40 22
42 41 18
43 0 13
43 1 15
43 2 22
43 3 14
43 4 6
43 5 14
43 6 20
43 7 7
43 8 7
43 9 10
43 10 3
43 11 20
43 12 7
43 13 7
43 14 1
43 15 12
43 16 3
43 17 20
43 18 22
43 19 7
43 20 6
43 21 11
43 22 5
43 23 21
43 24 21
43 25 19
43 26 6
43 27 16
43 28 1
43 29 13
43 30 10
43 31 5
43 32 22
43 33 13
43 34 6
43 35 3
43 36 1
43 37 5
43 38 13
43 39 2
43 40 20
43 41 19
43 42 16
44 0 16
44 1 7
44 2 11
44 3 16
44 4 6
44 5 3
44 6 1
44 7 3
44 8 13
44 9 13
44 10 4
44 11 7
44 12 6
44 13 9
44 14 8
44 15 5
44 16 1
44 17 6
44 18 19
44 19 14
44 20 7
44 21 17
44 22 1
44 23 22
44 24 12
44 25 13
44 26 11
44 27 1
44 28 17
44 29 12
44 30 12
44 31 4
44 32 18
44 33 9
44 34 6
44 35 18
44 36 4
44 37 16
44 38 21
44 39 18
44 40 18
44 41 10
44 42 16
44 43 18
45 0 8
45 1 9
45 2 4
45 3 7
45 4 22
45 5 4
45 6 6
45 7 4
45 8 5
45 9 19
45 10 13
45 11 22
45 12 1
45 13 17
45 14 17
45 15 7
45 16 21
45 17 2
45 18 6
45 19 19
45 20 9
45 21 2
45 22 18
45 23 21
45 24 11
45 25 17
45 26 14
45 27 16
45 28 5
45 29 15
45 30 20
45 31 6
45 32 16
45 33 2
45 34 1
45 35 15
45 36 3
45 37 15
45 38 3
45 39 8
45 40 14
45 41 22
45 42 5
45 43 2
45 44 18
46 0 16
46 1 5
46 2 4
46 3 9
46 4 19
46 5 3
46 6 19
46 7 4
46 8 21
46 9 14
46 10 12
46 11 12
46 12 22
46 13 14
46 14 22
46 15 19
46 16 20
46 17 6
46 18 8
46 19 16
46 20 16
46 21 2
46 22 10
46 23 2
46 24 6
46 25 4
46 26 13
46 27 17
46 28 15
46 29 10
46 30 17
46 31 12
46 32 1
46 33 19
46 34 20
46 35 7
46 36 1
46 37 21
46 38 13
46 39 9
46 40 1
46 41 14
46 42 18
46 43 17
46 44 8
46 45 21
47 0 15
47 1 15
47 2 4
47 3 8
47 4 11
47 5 15
47 6 10
47 7 5
47 8 11
47 9 13
47 10 22
47 11 14
47 12 7
47 13 13
47 14 12
47 15 11
47 16 21
47 17 4
47 18 14
47 19 20
47 20 16
47 21 8
47 22 13
47 23 2
47 24 11
47 25 3
47 26 14
47 27 9
47 28 22
47 29 18
47 30 2
47 31 12
47 32 15
47 33 15
47 34 18
47 35 22
47 36 11
47 37 18
47 38 19
47 39 22
47 40 2
47 41 18
47 42 20
47 43 9
47 44 10
47 45 18
47 46 1
48 0 10
48 1 12
48 2 12
48 3 12
48 4 15
48 5 15
48 6 19
48 7 14
48 8 1
48 9 16
48 10 9
48 11 21
48 12 7
48 13 9
48 14 21
48 15 21
48 16 3
48 17 3
48 18 3
48 19 17
48 20 6
48 21 5
48 22 19
48 23 13
48 24 2
48 25 9
48 26 10
48 27 15
48 28 7
48 29 5
48 30 7
48 31 6
48 32 8
48 33 3
48 34 4
48 35 6
48 36 22
48 37 3
48 38 21
48 39 7
48 40 2
48 41 17
48 42 7
48 43 16
48 44 14
48 45 17
48 46 19
48 47 4
49 0 14
49 1 5
49 2 13
49 3 14
49 4 14
49 5 5
49 6 15
49 7 4
49 8 5
49 9 8
49 10 16
49 11 10
49 12 5
49 13 14
49 14 3
49 15 10
49 16 9
49 17 14
49 18 10
49 19 14
49 20 6
49 21 12
49 22 15
49 23 9
49 24 20
49 25 3
49 26 4
49 27 18
49 28 18
49 29 3
49 30 3
49 31 22
49 32 4
49 33 16
49 34 5
49 35 20
49 36 9
49 37 11
49 38 19
49 39 12
49 40 10
49 41 5
49 42 19
49 43 9
49 44 2
49 45 5
49 46 13
49 47 17
49 48 5
50 0 22
50 1 1
50 2 10
50 3 11
50 4 1
50 5 9
50 6 21
50 7 10
50 8 21
50 9 16
50 10 1
50 11 10
50 12 5
50 13 4
50 14 6
50 15 6
50 16 19
50 17 18
50 18 22
50 19 11
50 20 22
50 21 14
50 22 16
50 23 4
50 24 3
50 25 20
50 26 7
50 27 6
50 28 19
50 29 12
50 30 18
50 31 17
50 32 16
50 33 17
50 34 2
50 35 15
50 36 1
50 37 13
50 38 19
50 39 5
50 40 14
50 41 6
50 42 15
50 43 13
50 44 11
50 45 13
50 46 7
50 47 22
50 48 17
50 49 2
51 0 15
51 1 19
51 2 8
51 3 3
51 4 12
51 5 10
51 6 22
51 7 4
51 8 8
51 9 14
51 10 1
51 11 10
51 12 8
51 13 17
51 14 15
51 15 21
51 16 2
51 17 17
51 18 2
51 19 5
51 20 15
51 21 8
51 22 13
51 23 18
51 24 2
51 25 20
51 26 10
51 27 3
51 28 8
51 29 3
51 30 3
51 31 15
51 32 19
51 33 12
51 34 14
51 35 10
51 36 2
51 37 3
51 38 20
51 39 5
51 40 14
51 41 13
51 42 22
51 43 16
51 44 1
51 45 14
51 46 16
51 47 9
51 48 2
51 49 20
51 50 8
52 0 19
52 1 4
52 2 18
52 3 20
52 4 4
52 5 14
52 6 16
52 7 10
52 8 20
52 9 6
52 10 8
52 11 1
52 12 10
52 13 1
52 14 20
52 15 15
52 16 21
52 17 15
52 18 20
52 19 21
52 20 21
52 21 20
52 22 9
52 23 20
52 24 13
52 25 21
52 26 17
52 27 5
52 28 16
52 29 1
52 30 13
52 31 6
52 32 20
52 33 1
52 34 14
52 35 18
52 36 7
52 37 21
52 38 7
52 39 8
52 40 15
52 41 7
52 42 7
52 43 10
52 44 11
52 45 7
52 46 12
52 47 6
52 48 5
52 49 7
52 50 11
52 51 19
53 0 22
53 1 8
53 2 8
53 3 20
53 4 10
53 5 7
53 6 15
53 7 20
53 8 9
53 9 8
53 10 18
53 11 6
53 12 11
53 13 9
53 14 20
53 15 14
53 16 6
53 17 21
53 18 20
53 19 2
53 20 18
53 21 12
53 22 19
53 23 21
53 24 11
53 25 14
53 26 20
53 27 5
53 28 9
53 29 7
53 30 21
53 31 13
53 32 16
53 33 21
53 34 16
53 35 11
53 36 22
53 37 3
53 38 2
53 39 10
53 40 22
53 41 3
53 42 5
53 43 11
53 44 1
53 45 16
53 46 22
53 47 4
53 48 11
53 49 6
53 50 20
53 51 12
53 52 12
54 0 19
54 1 5
54 2 9
54 3 15
54 4 16
54 5 20
54 6 12
54 7 7
54 8 1
54 9 14
54 10 22
54 11 9
54 12 8
54 13 4
54 14 10
54 15 8
54 16 20
54 17 5
54 18 22
54 19 5
54 20 3
54 21 6
54 22 7
54 23 22
54 24 7
54 25 17
54 26 11
54 27 19
54 28 1
54 29 5
54 30 18
54 31 4
54 32 7
54 33 2
54 34 12
54 35 2
54 36 16
54 37 10
54 38 14
54 39 11
54 40 14
54 41 8
54 42 13
54 43 9
54 44 13
54 45 15
54 46 3
54 47 6
54 48 4
54 49 17
54 50 22
54 51 4
54 52 5
54 53 9
55 0 1
55 1 7
55 2 20
55 3 16
55 4 14
55 5 21
55 6 9
55 7 2
55 8 9
55 9 4
55 10 18
55 11 16
55 12 14
55 13 14
55 14 16
55 15 13
55 16 8
55 17 12
55 18 10
55 19 18
55 20 21
55 21 5
55 22 10
55 23 21
55 24 10
55 25 3
55 26 6
55 27 4
55 28 19
55 29 12
55 30 2
55 31 2
55 32 12
55 33 11
55 34 11
55 35 2
55 36 2
55 37 3
55 38 7
55 39 10
55 40 7
55 41 6
55 42 1
55 43 7
55 44 7
55 45 9
55 46 10
55 47 9
55 48 10
55 49 22
55 50 22
55 51 8
55 52 16
55 53 19
55 54 9
56 0 5
56 1 11
56 2 8
56 3 22
56 4 20
56 5 9
56 6 12
56 7 1
56 8 4
56 9 2
56 10 13
56 11 19
56 12 22
56 13 14
56 14 16
56 15 4
56 16 3
56 17 2
56 18 16
56 19 17
56 20 22
56 21 20
56 22 16
56 23 2
56 24 10
56 25 4
56 26 20
56 27 7
56 28 9
56 29 22
56 30 17
56 31 3
56 32 18
56 33 20
56 34 8
56 35 2
56 36 5
56 37 17
56 38 7
56 39 9
56 40 20
56 41 16
56 42 14
56 43 7
56 44 16
56 45 20
56 46 4
56 47 9
56 48 20
56 49 9
56 50 10
56 51 16
56 52 20
56 53 8
56 54 7
56 55 14
57 0 16
57 1 2
57 2 12
57 3 18
57 4 13
57 5 2
57 6 5
57 7 5
57 8 1
57 9 19
57 10 18
57 11 4
57 12 16
57 13 20
57 14 22
57 15 8
57 16 2
57 17 3
57 18 15
57 19 7
57 20 15
57 21 1
57 22 5
57 23 4
57 24 14
57 25 13
57 26 2
57 27 5
57 28 12
57 29 20
57 30 10
57 31 20
57 32 20
57 33 15
57 34 20
57 35 19
57 36 17
57 37 4
57 38 4
57 39 19
57 40 8
57 41 13
57 42 15
57 43 4
57 44 9
57 45 7
57 46 17
57 47 15
57 48 8
57 49 5
57 50 18
57 51 1
57 52 17
57 53 9
57 54 1
57 55 22
57 56 10
58 0 9
58 1 6
58 2 17
58 3 20
58 4 11
58 5 3
58 6 18
58 7 11
58 8 20
58 9 14
58 10 10
58 11 8
58 12 21
58 13 17
58 14 8
58 15 14
58 16 22
58 17 11
58 18 2
58 19 15
58 20 15
58 21 6
58 22 1
58 23 4
58 24 16
58 25 12
58 26 5
58 27 8
58 28 5
58 29 7
58 30 10
58 31 22
58 32 13
58 33 17
58 34 16
58 35 9
58 36 14
58 37 6
58 38 10
58 39 1
58 40 22
58 41 6
58 42 20
58 43 6
58 44 6
58 45 3
58 46 21
58 47 7
58 48 10
58 49 11
58 50 12
58 51 14
58 52 10
58 53 11
58 54 1
58 55 2
58 56 1
58 57 19
59 0 14
59 1 13
59 2 3
59 3 13
59 4 18
59 5 11
59 6 14
59 7 13
59 8 22
59 9 7
59 10 21
59 11 17
59 12 7
59 13 3
59 14 1
59 15 12
59 16 9
59 17 6
59 18 17
59 19 19
59 20 8
59 21 9
59 22 6
59 23 18
59 24 13
59 25 5
59 26 15
59 27 22
59 28 16
59 29 19
59 30 13
59 31 6
59 32 18
59 33 10
59 34 21
59 35 4
59 36 16
59 37 19
59 38 10
59 39 3
59 40 14
59 41 18
59 42 20
59 43 16
59 44 5
59 45 16
59 46 15
59 47 4
59 48 18
59 49 3
59 50 14
59 51 22
59 52 12
59 53 19
59 54 10
59 55 10
59 56 6
59 57 7
59 58 10
60 0 4
60 1 4
60 2 13
60 3 18
60 4 5
60 5 18
60 6 19
60 7 8
60 8 14
60 9 18
60 10 22
60 11 19
60 12 9
60 13 14
60 14 1
60 15 12
60 16 13
60 17 1
60 18 3
60 19 15
60 20 10
60 21 4
60 22 13
60 23 4
60 24 3
60 25 4
60 26 11
60 27 9
60 28 15
60 29 6
60 30 21
60 31 15
60 32 9
60 33 5
60 34 21
60 35 12
60 36 1
60 37 15
60 38 22
60 39 11
60 40 11
60 41 8
60 42 19
60 43 10
60 44 3
60 45 6
60 46 10
60 47 19
60 48 7
60 49 1
60 50 8
60 51 14
60 52 1
60 53 10
60 54 17
60 55 10
60 56 17
60 57 14
60 58 8
60 59 10
61 0 22
61 1 15
61 2 11
61 3 17
61 4 22
61 5 3
61 6 6
61 7 19
61 8 2
61 9 4
61 10 8
61 11 12
61 12 19
61 13 21
61 14 12
61 15 2
61 16 22
61 17 6
61 18 18
61 19 17
61 20 11
61 21 18
61 22 5
61 23 15
61 24 8
61 25 6
61 26 1
61 27 1
61 28 7
61 29 4
61 30 19
61 31 16
61 32 8
61 33 11
61 34 15
61 35 6
61 36 13
61 37 4
61 38 17
61 39 13
61 40 1
61 41 13
61 42 20
61 43 11
61 44 6
61 45 5
61 46 14
61 47 12
61 48 13
61 49 19
61 50 9
61 51 12
61 52 13
61 53 19
61 54 6
61 55 3
61 56 14
61 57 7
61 58 10
61 59 13
61 60 4
